certificates/rado_a13_c82_N36.cnf
c Rad2 upper bound instance: x1 + 13*x2 - x3 = 82, interval [1,36]
p cnf 36 198
1 7 10 0
-1 -7 -10 0
1 8 23 0
-1 -8 -23 0
1 9 36 0
-1 -9 -36 0
2 7 11 0
-2 -7 -11 0
2 8 24 0
-2 -8 -24 0
3 7 12 0
-3 -7 -12 0
3 8 25 0
-3 -8 -25 0
4 7 13 0
-4 -7 -13 0
4 8 26 0
-4 -8 -26 0
1 5 6 0
-1 -5 -6 0
5 7 14 0
-5 -7 -14 0
5 8 27 0
-5 -8 -27 0
2 6 0
-2 -6 0
6 7 15 0
-6 -7 -15 0
6 8 28 0
-6 -8 -28 0
3 6 7 0
-3 -6 -7 0
7 16 0
-7 -16 0
7 8 29 0
-7 -8 -29 0
4 6 8 0
-4 -6 -8 0
7 8 17 0
-7 -8 -17 0
8 30 0
-8 -30 0
5 6 9 0
-5 -6 -9 0
7 9 18 0
-7 -9 -18 0
8 9 31 0
-8 -9 -31 0
6 10 0
-6 -10 0
7 10 19 0
-7 -10 -19 0
8 10 32 0
-8 -10 -32 0
6 7 11 0
-6 -7 -11 0
7 11 20 0
-7 -11 -20 0
8 11 33 0
-8 -11 -33 0
6 8 12 0
-6 -8 -12 0
7 12 21 0
-7 -12 -21 0
8 12 34 0
-8 -12 -34 0
6 9 13 0
-6 -9 -13 0
7 13 22 0
-7 -13 -22 0
8 13 35 0
-8 -13 -35 0
6 10 14 0
-6 -10 -14 0
7 14 23 0
-7 -14 -23 0
8 14 36 0
-8 -14 -36 0
6 11 15 0
-6 -11 -15 0
7 15 24 0
-7 -15 -24 0
6 12 16 0
-6 -12 -16 0
7 16 25 0
-7 -16 -25 0
6 13 17 0
-6 -13 -17 0
7 17 26 0
-7 -17 -26 0
1 5 18 0
-1 -5 -18 0
6 14 18 0
-6 -14 -18 0
7 18 27 0
-7 -18 -27 0
2 5 19 0
-2 -5 -19 0
6 15 19 0
-6 -15 -19 0
7 19 28 0
-7 -19 -28 0
3 5 20 0
-3 -5 -20 0
6 16 20 0
-6 -16 -20 0
7 20 29 0
-7 -20 -29 0
4 5 21 0
-4 -5 -21 0
6 17 21 0
-6 -17 -21 0
7 21 30 0
-7 -21 -30 0
5 22 0
-5 -22 0
6 18 22 0
-6 -18 -22 0
7 22 31 0
-7 -22 -31 0
5 6 23 0
-5 -6 -23 0
6 19 23 0
-6 -19 -23 0
7 23 32 0
-7 -23 -32 0
5 7 24 0
-5 -7 -24 0
6 20 24 0
-6 -20 -24 0
7 24 33 0
-7 -24 -33 0
5 8 25 0
-5 -8 -25 0
6 21 25 0
-6 -21 -25 0
7 25 34 0
-7 -25 -34 0
5 9 26 0
-5 -9 -26 0
6 22 26 0
-6 -22 -26 0
7 26 35 0
-7 -26 -35 0
5 10 27 0
-5 -10 -27 0
6 23 27 0
-6 -23 -27 0
7 27 36 0
-7 -27 -36 0
5 11 28 0
-5 -11 -28 0
6 24 28 0
-6 -24 -28 0
5 12 29 0
-5 -12 -29 0
6 25 29 0
-6 -25 -29 0
5 13 30 0
-5 -13 -30 0
6 26 30 0
-6 -26 -30 0
1 4 31 0
-1 -4 -31 0
5 14 31 0
-5 -14 -31 0
6 27 31 0
-6 -27 -31 0
2 4 32 0
-2 -4 -32 0
5 15 32 0
-5 -15 -32 0
6 28 32 0
-6 -28 -32 0
3 4 33 0
-3 -4 -33 0
5 16 33 0
-5 -16 -33 0
6 29 33 0
-6 -29 -33 0
4 34 0
-4 -34 0
5 17 34 0
-5 -17 -34 0
6 30 34 0
-6 -30 -34 0
4 5 35 0
-4 -5 -35 0
5 18 35 0
-5 -18 -35 0
6 31 35 0
-6 -31 -35 0
4 6 36 0
-4 -6 -36 0
5 19 36 0
-5 -19 -36 0
6 32 36 0
-6 -32 -36 0
