certificates/rado_a13_c82_N36.drat
-32 4 -36 0
4 -35 -36 0
-35 -36 0
d 4 -35 -36 0
-4 6 35 0
6 -36 0
-36 0
-5 -6 0
d -5 -1 -6 0
4 -6 0
-6 0
2 0
10 0
4 0
32 0
-34 0
0
